solution status: optimal solution found
objective value:                                    0
one.pinholes[0].hole_out_c_y                       22 	(obj:0)
one.pinholes[0].hole_out_c_z                       22 	(obj:0)
$_6__9_y                                           21 	(obj:0)
$_6__9_z                                           21 	(obj:0)
one.ctrl_a[10].hole_y                              23 	(obj:0)
one.ctrl_a[10].hole_z                              21 	(obj:0)
one.ctrl_a[10].flush_y                             23 	(obj:0)
one.ctrl_a[10].flush_z                             20 	(obj:0)
one.thingy.devices[0].thingy.vs3_y                   23 	(obj:0)
one.thingy.devices[0].thingy.vs3_z                   22 	(obj:0)
one.ctrl_a[11].hole_y                              24 	(obj:0)
one.ctrl_a[11].hole_z                              22 	(obj:0)
one.ctrl_a[11].flush_y                             22 	(obj:0)
one.ctrl_a[11].flush_z                             21 	(obj:0)
